words_hard_train/1490.qaiger
aag 106 16 0 1 90
2
4
12
14
18
22
28
32
36
66
74
90
106
122
142
158
212
6 2 4
8 3 5
10 7 9
16 12 14
20 17 19
24 22 14
26 20 25
30 26 29
34 30 33
38 35 36
40 34 37
42 39 41
44 27 28
46 45 31
48 24 13
50 48 19
52 46 50
54 52 33
56 42 54
58 57 41
60 11 58
62 10 59
64 61 63
68 67 13
70 66 12
72 69 71
76 72 74
78 76 23
80 79 71
82 13 15
84 83 25
86 84 17
88 87 49
92 89 91
94 88 90
96 93 95
98 81 96
100 99 95
102 16 18
104 103 21
108 105 107
110 104 106
112 109 111
114 101 112
116 115 111
118 47 51
120 119 53
124 121 123
126 120 122
128 125 127
130 117 128
132 131 127
134 53 31
136 134 32
138 137 55
140 138 35
144 141 143
146 140 142
148 145 147
150 133 148
152 151 147
154 43 55
156 155 57
160 157 159
162 156 158
164 161 163
166 153 164
168 167 163
170 64 169
172 65 168
174 171 173
176 100 113
178 177 115
180 80 97
182 181 99
184 179 183
186 73 75
188 186 22
190 189 79
192 116 129
194 193 131
196 191 195
198 132 149
200 199 151
202 196 201
204 152 165
206 205 167
208 202 207
210 184 208
212 175 211
i0 2 y1[7]
i1 1 x1[7]
i2 1 x1[1]
i3 1 x1[2]
i4 1 x1[3]
i5 1 x1[0]
i6 1 x1[4]
i7 1 x1[5]
i8 1 x1[6]
i9 2 y1[1]
i10 2 y1[0]
i11 2 y1[2]
i12 2 y1[3]
i13 2 y1[4]
i14 2 y1[5]
i15 2 y1[6]
o0 bv[0]
c
simplified
  <=
    abs
      1
    subtract
      2 y1
      add
        -133
        1 x1
