words_hard_train/1490.qaiger.qdimacs
p cnf 106 271
a 2 6 7 9 11 14 16 18 0
e 1 3 4 5 8 10 12 13 15 17 19 20 21 22 23 24 25 26 27 28 29 30 31 32 33 34 35 36 37 38 39 40 41 42 43 44 45 46 47 48 49 50 51 52 53 54 55 56 57 58 59 60 61 62 63 64 65 66 67 68 69 70 71 72 73 74 75 76 77 78 79 80 81 82 83 84 85 86 87 88 89 90 91 92 93 94 95 96 97 98 99 100 101 102 103 104 105 106 0
-1 -2 3 0
1 -3 0
2 -3 0
1 2 4 0
-1 -4 0
-2 -4 0
3 4 5 0
-3 -5 0
-4 -5 0
-6 -7 8 0
6 -8 0
7 -8 0
8 9 10 0
-8 -10 0
-9 -10 0
-11 -7 12 0
11 -12 0
7 -12 0
-10 12 13 0
10 -13 0
-12 -13 0
-13 14 15 0
13 -15 0
-14 -15 0
-15 16 17 0
15 -17 0
-16 -17 0
17 -18 19 0
-17 -19 0
18 -19 0
-17 18 20 0
17 -20 0
-18 -20 0
19 20 21 0
-19 -21 0
-20 -21 0
13 -14 22 0
-13 -22 0
14 -22 0
22 15 23 0
-22 -23 0
-15 -23 0
-12 6 24 0
12 -24 0
-6 -24 0
-24 9 25 0
24 -25 0
-9 -25 0
-23 -25 26 0
23 -26 0
25 -26 0
-26 16 27 0
26 -27 0
-16 -27 0
-21 -27 28 0
21 -28 0
27 -28 0
28 20 29 0
-28 -29 0
-20 -29 0
5 -29 30 0
-5 -30 0
29 -30 0
-5 29 31 0
5 -31 0
-29 -31 0
30 31 32 0
-30 -32 0
-31 -32 0
33 6 34 0
-33 -34 0
-6 -34 0
-33 -6 35 0
33 -35 0
6 -35 0
34 35 36 0
-34 -36 0
-35 -36 0
-36 -37 38 0
36 -38 0
37 -38 0
-38 11 39 0
38 -39 0
-11 -39 0
39 35 40 0
-39 -40 0
-35 -40 0
6 7 41 0
-6 -41 0
-7 -41 0
41 12 42 0
-41 -42 0
-12 -42 0
-42 8 43 0
42 -43 0
-8 -43 0
43 24 44 0
-43 -44 0
-24 -44 0
44 45 46 0
-44 -46 0
-45 -46 0
-44 -45 47 0
44 -47 0
45 -47 0
46 47 48 0
-46 -48 0
-47 -48 0
40 -48 49 0
-40 -49 0
48 -49 0
49 47 50 0
-49 -50 0
-47 -50 0
-8 -9 51 0
8 -51 0
9 -51 0
51 10 52 0
-51 -52 0
-10 -52 0
52 53 54 0
-52 -54 0
-53 -54 0
-52 -53 55 0
52 -55 0
53 -55 0
54 55 56 0
-54 -56 0
-55 -56 0
50 -56 57 0
-50 -57 0
56 -57 0
57 55 58 0
-57 -58 0
-55 -58 0
23 25 59 0
-23 -59 0
-25 -59 0
59 26 60 0
-59 -60 0
-26 -60 0
60 61 62 0
-60 -62 0
-61 -62 0
-60 -61 63 0
60 -63 0
61 -63 0
62 63 64 0
-62 -64 0
-63 -64 0
58 -64 65 0
-58 -65 0
64 -65 0
65 63 66 0
-65 -66 0
-63 -66 0
26 15 67 0
-26 -67 0
-15 -67 0
-67 -16 68 0
67 -68 0
16 -68 0
68 27 69 0
-68 -69 0
-27 -69 0
-69 17 70 0
69 -70 0
-17 -70 0
70 71 72 0
-70 -72 0
-71 -72 0
-70 -71 73 0
70 -73 0
71 -73 0
72 73 74 0
-72 -74 0
-73 -74 0
66 -74 75 0
-66 -75 0
74 -75 0
75 73 76 0
-75 -76 0
-73 -76 0
21 27 77 0
-21 -77 0
-27 -77 0
77 28 78 0
-77 -78 0
-28 -78 0
78 79 80 0
-78 -80 0
-79 -80 0
-78 -79 81 0
78 -81 0
79 -81 0
80 81 82 0
-80 -82 0
-81 -82 0
76 -82 83 0
-76 -83 0
82 -83 0
83 81 84 0
-83 -84 0
-81 -84 0
-32 84 85 0
32 -85 0
-84 -85 0
32 -84 86 0
-32 -86 0
84 -86 0
85 86 87 0
-85 -87 0
-86 -87 0
-50 56 88 0
50 -88 0
-56 -88 0
88 57 89 0
-88 -89 0
-57 -89 0
-40 48 90 0
40 -90 0
-48 -90 0
90 49 91 0
-90 -91 0
-49 -91 0
89 91 92 0
-89 -92 0
-91 -92 0
36 37 93 0
-36 -93 0
-37 -93 0
-93 -11 94 0
93 -94 0
11 -94 0
94 39 95 0
-94 -95 0
-39 -95 0
-58 64 96 0
58 -96 0
-64 -96 0
96 65 97 0
-96 -97 0
-65 -97 0
95 97 98 0
-95 -98 0
-97 -98 0
-66 74 99 0
66 -99 0
-74 -99 0
99 75 100 0
-99 -100 0
-75 -100 0
-98 100 101 0
98 -101 0
-100 -101 0
-76 82 102 0
76 -102 0
-82 -102 0
102 83 103 0
-102 -103 0
-83 -103 0
-101 103 104 0
101 -104 0
-103 -104 0
-92 -104 105 0
92 -105 0
104 -105 0
87 105 106 0
-87 -106 0
-105 -106 0
106 0
